c FILE: queen10_10.col
c Translated from Stanford GraphBase File: queen10_10.gb
c Stanford GraphBase ID: gunion(board(10,10,0,0,-1,0,0),board(10,10,0,0,-2,0,0),0,0)
p edge 100 2940
e 1 12
e 1 23
e 1 34
e 1 45
e 1 56
e 1 67
e 1 78
e 1 89
e 1 100
e 1 2
e 1 3
e 1 4
e 1 5
e 1 6
e 1 7
e 1 8
e 1 9
e 1 10
e 1 11
e 1 21
e 1 31
e 1 41
e 1 51
e 1 61
e 1 71
e 1 81
e 1 91
e 2 13
e 2 24
e 2 35
e 2 46
e 2 57
e 2 68
e 2 79
e 2 90
e 2 11
e 2 3
e 2 4
e 2 5
e 2 6
e 2 7
e 2 8
e 2 9
e 2 10
e 2 12
e 2 22
e 2 32
e 2 42
e 2 52
e 2 62
e 2 72
e 2 82
e 2 92
e 2 1
e 3 14
e 3 25
e 3 36
e 3 47
e 3 58
e 3 69
e 3 80
e 3 12
e 3 21
e 3 4
e 3 5
e 3 6
e 3 7
e 3 8
e 3 9
e 3 10
e 3 13
e 3 23
e 3 33
e 3 43
e 3 53
e 3 63
e 3 73
e 3 83
e 3 93
e 3 2
e 3 1
e 4 15
e 4 26
e 4 37
e 4 48
e 4 59
e 4 70
e 4 13
e 4 22
e 4 31
e 4 5
e 4 6
e 4 7
e 4 8
e 4 9
e 4 10
e 4 14
e 4 24
e 4 34
e 4 44
e 4 54
e 4 64
e 4 74
e 4 84
e 4 94
e 4 3
e 4 2
e 4 1
e 5 16
e 5 27
e 5 38
e 5 49
e 5 60
e 5 14
e 5 23
e 5 32
e 5 41
e 5 6
e 5 7
e 5 8
e 5 9
e 5 10
e 5 15
e 5 25
e 5 35
e 5 45
e 5 55
e 5 65
e 5 75
e 5 85
e 5 95
e 5 4
e 5 3
e 5 2
e 5 1
e 6 17
e 6 28
e 6 39
e 6 50
e 6 15
e 6 24
e 6 33
e 6 42
e 6 51
e 6 7
e 6 8
e 6 9
e 6 10
e 6 16
e 6 26
e 6 36
e 6 46
e 6 56
e 6 66
e 6 76
e 6 86
e 6 96
e 6 5
e 6 4
e 6 3
e 6 2
e 6 1
e 7 18
e 7 29
e 7 40
e 7 16
e 7 25
e 7 34
e 7 43
e 7 52
e 7 61
e 7 8
e 7 9
e 7 10
e 7 17
e 7 27
e 7 37
e 7 47
e 7 57
e 7 67
e 7 77
e 7 87
e 7 97
e 7 6
e 7 5
e 7 4
e 7 3
e 7 2
e 7 1
e 8 19
e 8 30
e 8 17
e 8 26
e 8 35
e 8 44
e 8 53
e 8 62
e 8 71
e 8 9
e 8 10
e 8 18
e 8 28
e 8 38
e 8 48
e 8 58
e 8 68
e 8 78
e 8 88
e 8 98
e 8 7
e 8 6
e 8 5
e 8 4
e 8 3
e 8 2
e 8 1
e 9 20
e 9 18
e 9 27
e 9 36
e 9 45
e 9 54
e 9 63
e 9 72
e 9 81
e 9 10
e 9 19
e 9 29
e 9 39
e 9 49
e 9 59
e 9 69
e 9 79
e 9 89
e 9 99
e 9 8
e 9 7
e 9 6
e 9 5
e 9 4
e 9 3
e 9 2
e 9 1
e 10 19
e 10 28
e 10 37
e 10 46
e 10 55
e 10 64
e 10 73
e 10 82
e 10 91
e 10 20
e 10 30
e 10 40
e 10 50
e 10 60
e 10 70
e 10 80
e 10 90
e 10 100
e 10 9
e 10 8
e 10 7
e 10 6
e 10 5
e 10 4
e 10 3
e 10 2
e 10 1
e 11 22
e 11 33
e 11 44
e 11 55
e 11 66
e 11 77
e 11 88
e 11 99
e 11 12
e 11 13
e 11 14
e 11 15
e 11 16
e 11 17
e 11 18
e 11 19
e 11 20
e 11 21
e 11 31
e 11 41
e 11 51
e 11 61
e 11 71
e 11 81
e 11 91
e 11 2
e 11 1
e 12 23
e 12 34
e 12 45
e 12 56
e 12 67
e 12 78
e 12 89
e 12 100
e 12 21
e 12 13
e 12 14
e 12 15
e 12 16
e 12 17
e 12 18
e 12 19
e 12 20
e 12 22
e 12 32
e 12 42
e 12 52
e 12 62
e 12 72
e 12 82
e 12 92
e 12 11
e 12 3
e 12 2
e 12 1
e 13 24
e 13 35
e 13 46
e 13 57
e 13 68
e 13 79
e 13 90
e 13 22
e 13 31
e 13 14
e 13 15
e 13 16
e 13 17
e 13 18
e 13 19
e 13 20
e 13 23
e 13 33
e 13 43
e 13 53
e 13 63
e 13 73
e 13 83
e 13 93
e 13 12
e 13 11
e 13 4
e 13 3
e 13 2
e 14 25
e 14 36
e 14 47
e 14 58
e 14 69
e 14 80
e 14 23
e 14 32
e 14 41
e 14 15
e 14 16
e 14 17
e 14 18
e 14 19
e 14 20
e 14 24
e 14 34
e 14 44
e 14 54
e 14 64
e 14 74
e 14 84
e 14 94
e 14 13
e 14 12
e 14 11
e 14 5
e 14 4
e 14 3
e 15 26
e 15 37
e 15 48
e 15 59
e 15 70
e 15 24
e 15 33
e 15 42
e 15 51
e 15 16
e 15 17
e 15 18
e 15 19
e 15 20
e 15 25
e 15 35
e 15 45
e 15 55
e 15 65
e 15 75
e 15 85
e 15 95
e 15 14
e 15 13
e 15 12
e 15 11
e 15 6
e 15 5
e 15 4
e 16 27
e 16 38
e 16 49
e 16 60
e 16 25
e 16 34
e 16 43
e 16 52
e 16 61
e 16 17
e 16 18
e 16 19
e 16 20
e 16 26
e 16 36
e 16 46
e 16 56
e 16 66
e 16 76
e 16 86
e 16 96
e 16 15
e 16 14
e 16 13
e 16 12
e 16 11
e 16 7
e 16 6
e 16 5
e 17 28
e 17 39
e 17 50
e 17 26
e 17 35
e 17 44
e 17 53
e 17 62
e 17 71
e 17 18
e 17 19
e 17 20
e 17 27
e 17 37
e 17 47
e 17 57
e 17 67
e 17 77
e 17 87
e 17 97
e 17 16
e 17 15
e 17 14
e 17 13
e 17 12
e 17 11
e 17 8
e 17 7
e 17 6
e 18 29
e 18 40
e 18 27
e 18 36
e 18 45
e 18 54
e 18 63
e 18 72
e 18 81
e 18 19
e 18 20
e 18 28
e 18 38
e 18 48
e 18 58
e 18 68
e 18 78
e 18 88
e 18 98
e 18 17
e 18 16
e 18 15
e 18 14
e 18 13
e 18 12
e 18 11
e 18 9
e 18 8
e 18 7
e 19 30
e 19 28
e 19 37
e 19 46
e 19 55
e 19 64
e 19 73
e 19 82
e 19 91
e 19 20
e 19 29
e 19 39
e 19 49
e 19 59
e 19 69
e 19 79
e 19 89
e 19 99
e 19 18
e 19 17
e 19 16
e 19 15
e 19 14
e 19 13
e 19 12
e 19 11
e 19 10
e 19 9
e 19 8
e 20 29
e 20 38
e 20 47
e 20 56
e 20 65
e 20 74
e 20 83
e 20 92
e 20 30
e 20 40
e 20 50
e 20 60
e 20 70
e 20 80
e 20 90
e 20 100
e 20 19
e 20 18
e 20 17
e 20 16
e 20 15
e 20 14
e 20 13
e 20 12
e 20 11
e 20 10
e 20 9
e 21 32
e 21 43
e 21 54
e 21 65
e 21 76
e 21 87
e 21 98
e 21 22
e 21 23
e 21 24
e 21 25
e 21 26
e 21 27
e 21 28
e 21 29
e 21 30
e 21 31
e 21 41
e 21 51
e 21 61
e 21 71
e 21 81
e 21 91
e 21 12
e 21 11
e 21 3
e 21 1
e 22 33
e 22 44
e 22 55
e 22 66
e 22 77
e 22 88
e 22 99
e 22 31
e 22 23
e 22 24
e 22 25
e 22 26
e 22 27
e 22 28
e 22 29
e 22 30
e 22 32
e 22 42
e 22 52
e 22 62
e 22 72
e 22 82
e 22 92
e 22 21
e 22 13
e 22 12
e 22 11
e 22 4
e 22 2
e 23 34
e 23 45
e 23 56
e 23 67
e 23 78
e 23 89
e 23 100
e 23 32
e 23 41
e 23 24
e 23 25
e 23 26
e 23 27
e 23 28
e 23 29
e 23 30
e 23 33
e 23 43
e 23 53
e 23 63
e 23 73
e 23 83
e 23 93
e 23 22
e 23 21
e 23 14
e 23 13
e 23 12
e 23 5
e 23 3
e 23 1
e 24 35
e 24 46
e 24 57
e 24 68
e 24 79
e 24 90
e 24 33
e 24 42
e 24 51
e 24 25
e 24 26
e 24 27
e 24 28
e 24 29
e 24 30
e 24 34
e 24 44
e 24 54
e 24 64
e 24 74
e 24 84
e 24 94
e 24 23
e 24 22
e 24 21
e 24 15
e 24 14
e 24 13
e 24 6
e 24 4
e 24 2
e 25 36
e 25 47
e 25 58
e 25 69
e 25 80
e 25 34
e 25 43
e 25 52
e 25 61
e 25 26
e 25 27
e 25 28
e 25 29
e 25 30
e 25 35
e 25 45
e 25 55
e 25 65
e 25 75
e 25 85
e 25 95
e 25 24
e 25 23
e 25 22
e 25 21
e 25 16
e 25 15
e 25 14
e 25 7
e 25 5
e 25 3
e 26 37
e 26 48
e 26 59
e 26 70
e 26 35
e 26 44
e 26 53
e 26 62
e 26 71
e 26 27
e 26 28
e 26 29
e 26 30
e 26 36
e 26 46
e 26 56
e 26 66
e 26 76
e 26 86
e 26 96
e 26 25
e 26 24
e 26 23
e 26 22
e 26 21
e 26 17
e 26 16
e 26 15
e 26 8
e 26 6
e 26 4
e 27 38
e 27 49
e 27 60
e 27 36
e 27 45
e 27 54
e 27 63
e 27 72
e 27 81
e 27 28
e 27 29
e 27 30
e 27 37
e 27 47
e 27 57
e 27 67
e 27 77
e 27 87
e 27 97
e 27 26
e 27 25
e 27 24
e 27 23
e 27 22
e 27 21
e 27 18
e 27 17
e 27 16
e 27 9
e 27 7
e 27 5
e 28 39
e 28 50
e 28 37
e 28 46
e 28 55
e 28 64
e 28 73
e 28 82
e 28 91
e 28 29
e 28 30
e 28 38
e 28 48
e 28 58
e 28 68
e 28 78
e 28 88
e 28 98
e 28 27
e 28 26
e 28 25
e 28 24
e 28 23
e 28 22
e 28 21
e 28 19
e 28 18
e 28 17
e 28 10
e 28 8
e 28 6
e 29 40
e 29 38
e 29 47
e 29 56
e 29 65
e 29 74
e 29 83
e 29 92
e 29 30
e 29 39
e 29 49
e 29 59
e 29 69
e 29 79
e 29 89
e 29 99
e 29 28
e 29 27
e 29 26
e 29 25
e 29 24
e 29 23
e 29 22
e 29 21
e 29 20
e 29 19
e 29 18
e 29 9
e 29 7
e 30 39
e 30 48
e 30 57
e 30 66
e 30 75
e 30 84
e 30 93
e 30 40
e 30 50
e 30 60
e 30 70
e 30 80
e 30 90
e 30 100
e 30 29
e 30 28
e 30 27
e 30 26
e 30 25
e 30 24
e 30 23
e 30 22
e 30 21
e 30 20
e 30 19
e 30 10
e 30 8
e 31 42
e 31 53
e 31 64
e 31 75
e 31 86
e 31 97
e 31 32
e 31 33
e 31 34
e 31 35
e 31 36
e 31 37
e 31 38
e 31 39
e 31 40
e 31 41
e 31 51
e 31 61
e 31 71
e 31 81
e 31 91
e 31 22
e 31 21
e 31 13
e 31 11
e 31 4
e 31 1
e 32 43
e 32 54
e 32 65
e 32 76
e 32 87
e 32 98
e 32 41
e 32 33
e 32 34
e 32 35
e 32 36
e 32 37
e 32 38
e 32 39
e 32 40
e 32 42
e 32 52
e 32 62
e 32 72
e 32 82
e 32 92
e 32 31
e 32 23
e 32 22
e 32 21
e 32 14
e 32 12
e 32 5
e 32 2
e 33 44
e 33 55
e 33 66
e 33 77
e 33 88
e 33 99
e 33 42
e 33 51
e 33 34
e 33 35
e 33 36
e 33 37
e 33 38
e 33 39
e 33 40
e 33 43
e 33 53
e 33 63
e 33 73
e 33 83
e 33 93
e 33 32
e 33 31
e 33 24
e 33 23
e 33 22
e 33 15
e 33 13
e 33 11
e 33 6
e 33 3
e 34 45
e 34 56
e 34 67
e 34 78
e 34 89
e 34 100
e 34 43
e 34 52
e 34 61
e 34 35
e 34 36
e 34 37
e 34 38
e 34 39
e 34 40
e 34 44
e 34 54
e 34 64
e 34 74
e 34 84
e 34 94
e 34 33
e 34 32
e 34 31
e 34 25
e 34 24
e 34 23
e 34 16
e 34 14
e 34 12
e 34 7
e 34 4
e 34 1
e 35 46
e 35 57
e 35 68
e 35 79
e 35 90
e 35 44
e 35 53
e 35 62
e 35 71
e 35 36
e 35 37
e 35 38
e 35 39
e 35 40
e 35 45
e 35 55
e 35 65
e 35 75
e 35 85
e 35 95
e 35 34
e 35 33
e 35 32
e 35 31
e 35 26
e 35 25
e 35 24
e 35 17
e 35 15
e 35 13
e 35 8
e 35 5
e 35 2
e 36 47
e 36 58
e 36 69
e 36 80
e 36 45
e 36 54
e 36 63
e 36 72
e 36 81
e 36 37
e 36 38
e 36 39
e 36 40
e 36 46
e 36 56
e 36 66
e 36 76
e 36 86
e 36 96
e 36 35
e 36 34
e 36 33
e 36 32
e 36 31
e 36 27
e 36 26
e 36 25
e 36 18
e 36 16
e 36 14
e 36 9
e 36 6
e 36 3
e 37 48
e 37 59
e 37 70
e 37 46
e 37 55
e 37 64
e 37 73
e 37 82
e 37 91
e 37 38
e 37 39
e 37 40
e 37 47
e 37 57
e 37 67
e 37 77
e 37 87
e 37 97
e 37 36
e 37 35
e 37 34
e 37 33
e 37 32
e 37 31
e 37 28
e 37 27
e 37 26
e 37 19
e 37 17
e 37 15
e 37 10
e 37 7
e 37 4
e 38 49
e 38 60
e 38 47
e 38 56
e 38 65
e 38 74
e 38 83
e 38 92
e 38 39
e 38 40
e 38 48
e 38 58
e 38 68
e 38 78
e 38 88
e 38 98
e 38 37
e 38 36
e 38 35
e 38 34
e 38 33
e 38 32
e 38 31
e 38 29
e 38 28
e 38 27
e 38 20
e 38 18
e 38 16
e 38 8
e 38 5
e 39 50
e 39 48
e 39 57
e 39 66
e 39 75
e 39 84
e 39 93
e 39 40
e 39 49
e 39 59
e 39 69
e 39 79
e 39 89
e 39 99
e 39 38
e 39 37
e 39 36
e 39 35
e 39 34
e 39 33
e 39 32
e 39 31
e 39 30
e 39 29
e 39 28
e 39 19
e 39 17
e 39 9
e 39 6
e 40 49
e 40 58
e 40 67
e 40 76
e 40 85
e 40 94
e 40 50
e 40 60
e 40 70
e 40 80
e 40 90
e 40 100
e 40 39
e 40 38
e 40 37
e 40 36
e 40 35
e 40 34
e 40 33
e 40 32
e 40 31
e 40 30
e 40 29
e 40 20
e 40 18
e 40 10
e 40 7
e 41 52
e 41 63
e 41 74
e 41 85
e 41 96
e 41 42
e 41 43
e 41 44
e 41 45
e 41 46
e 41 47
e 41 48
e 41 49
e 41 50
e 41 51
e 41 61
e 41 71
e 41 81
e 41 91
e 41 32
e 41 31
e 41 23
e 41 21
e 41 14
e 41 11
e 41 5
e 41 1
e 42 53
e 42 64
e 42 75
e 42 86
e 42 97
e 42 51
e 42 43
e 42 44
e 42 45
e 42 46
e 42 47
e 42 48
e 42 49
e 42 50
e 42 52
e 42 62
e 42 72
e 42 82
e 42 92
e 42 41
e 42 33
e 42 32
e 42 31
e 42 24
e 42 22
e 42 15
e 42 12
e 42 6
e 42 2
e 43 54
e 43 65
e 43 76
e 43 87
e 43 98
e 43 52
e 43 61
e 43 44
e 43 45
e 43 46
e 43 47
e 43 48
e 43 49
e 43 50
e 43 53
e 43 63
e 43 73
e 43 83
e 43 93
e 43 42
e 43 41
e 43 34
e 43 33
e 43 32
e 43 25
e 43 23
e 43 21
e 43 16
e 43 13
e 43 7
e 43 3
e 44 55
e 44 66
e 44 77
e 44 88
e 44 99
e 44 53
e 44 62
e 44 71
e 44 45
e 44 46
e 44 47
e 44 48
e 44 49
e 44 50
e 44 54
e 44 64
e 44 74
e 44 84
e 44 94
e 44 43
e 44 42
e 44 41
e 44 35
e 44 34
e 44 33
e 44 26
e 44 24
e 44 22
e 44 17
e 44 14
e 44 11
e 44 8
e 44 4
e 45 56
e 45 67
e 45 78
e 45 89
e 45 100
e 45 54
e 45 63
e 45 72
e 45 81
e 45 46
e 45 47
e 45 48
e 45 49
e 45 50
e 45 55
e 45 65
e 45 75
e 45 85
e 45 95
e 45 44
e 45 43
e 45 42
e 45 41
e 45 36
e 45 35
e 45 34
e 45 27
e 45 25
e 45 23
e 45 18
e 45 15
e 45 12
e 45 9
e 45 5
e 45 1
e 46 57
e 46 68
e 46 79
e 46 90
e 46 55
e 46 64
e 46 73
e 46 82
e 46 91
e 46 47
e 46 48
e 46 49
e 46 50
e 46 56
e 46 66
e 46 76
e 46 86
e 46 96
e 46 45
e 46 44
e 46 43
e 46 42
e 46 41
e 46 37
e 46 36
e 46 35
e 46 28
e 46 26
e 46 24
e 46 19
e 46 16
e 46 13
e 46 10
e 46 6
e 46 2
e 47 58
e 47 69
e 47 80
e 47 56
e 47 65
e 47 74
e 47 83
e 47 92
e 47 48
e 47 49
e 47 50
e 47 57
e 47 67
e 47 77
e 47 87
e 47 97
e 47 46
e 47 45
e 47 44
e 47 43
e 47 42
e 47 41
e 47 38
e 47 37
e 47 36
e 47 29
e 47 27
e 47 25
e 47 20
e 47 17
e 47 14
e 47 7
e 47 3
e 48 59
e 48 70
e 48 57
e 48 66
e 48 75
e 48 84
e 48 93
e 48 49
e 48 50
e 48 58
e 48 68
e 48 78
e 48 88
e 48 98
e 48 47
e 48 46
e 48 45
e 48 44
e 48 43
e 48 42
e 48 41
e 48 39
e 48 38
e 48 37
e 48 30
e 48 28
e 48 26
e 48 18
e 48 15
e 48 8
e 48 4
e 49 60
e 49 58
e 49 67
e 49 76
e 49 85
e 49 94
e 49 50
e 49 59
e 49 69
e 49 79
e 49 89
e 49 99
e 49 48
e 49 47
e 49 46
e 49 45
e 49 44
e 49 43
e 49 42
e 49 41
e 49 40
e 49 39
e 49 38
e 49 29
e 49 27
e 49 19
e 49 16
e 49 9
e 49 5
e 50 59
e 50 68
e 50 77
e 50 86
e 50 95
e 50 60
e 50 70
e 50 80
e 50 90
e 50 100
e 50 49
e 50 48
e 50 47
e 50 46
e 50 45
e 50 44
e 50 43
e 50 42
e 50 41
e 50 40
e 50 39
e 50 30
e 50 28
e 50 20
e 50 17
e 50 10
e 50 6
e 51 62
e 51 73
e 51 84
e 51 95
e 51 52
e 51 53
e 51 54
e 51 55
e 51 56
e 51 57
e 51 58
e 51 59
e 51 60
e 51 61
e 51 71
e 51 81
e 51 91
e 51 42
e 51 41
e 51 33
e 51 31
e 51 24
e 51 21
e 51 15
e 51 11
e 51 6
e 51 1
e 52 63
e 52 74
e 52 85
e 52 96
e 52 61
e 52 53
e 52 54
e 52 55
e 52 56
e 52 57
e 52 58
e 52 59
e 52 60
e 52 62
e 52 72
e 52 82
e 52 92
e 52 51
e 52 43
e 52 42
e 52 41
e 52 34
e 52 32
e 52 25
e 52 22
e 52 16
e 52 12
e 52 7
e 52 2
e 53 64
e 53 75
e 53 86
e 53 97
e 53 62
e 53 71
e 53 54
e 53 55
e 53 56
e 53 57
e 53 58
e 53 59
e 53 60
e 53 63
e 53 73
e 53 83
e 53 93
e 53 52
e 53 51
e 53 44
e 53 43
e 53 42
e 53 35
e 53 33
e 53 31
e 53 26
e 53 23
e 53 17
e 53 13
e 53 8
e 53 3
e 54 65
e 54 76
e 54 87
e 54 98
e 54 63
e 54 72
e 54 81
e 54 55
e 54 56
e 54 57
e 54 58
e 54 59
e 54 60
e 54 64
e 54 74
e 54 84
e 54 94
e 54 53
e 54 52
e 54 51
e 54 45
e 54 44
e 54 43
e 54 36
e 54 34
e 54 32
e 54 27
e 54 24
e 54 21
e 54 18
e 54 14
e 54 9
e 54 4
e 55 66
e 55 77
e 55 88
e 55 99
e 55 64
e 55 73
e 55 82
e 55 91
e 55 56
e 55 57
e 55 58
e 55 59
e 55 60
e 55 65
e 55 75
e 55 85
e 55 95
e 55 54
e 55 53
e 55 52
e 55 51
e 55 46
e 55 45
e 55 44
e 55 37
e 55 35
e 55 33
e 55 28
e 55 25
e 55 22
e 55 19
e 55 15
e 55 11
e 55 10
e 55 5
e 56 67
e 56 78
e 56 89
e 56 100
e 56 65
e 56 74
e 56 83
e 56 92
e 56 57
e 56 58
e 56 59
e 56 60
e 56 66
e 56 76
e 56 86
e 56 96
e 56 55
e 56 54
e 56 53
e 56 52
e 56 51
e 56 47
e 56 46
e 56 45
e 56 38
e 56 36
e 56 34
e 56 29
e 56 26
e 56 23
e 56 20
e 56 16
e 56 12
e 56 6
e 56 1
e 57 68
e 57 79
e 57 90
e 57 66
e 57 75
e 57 84
e 57 93
e 57 58
e 57 59
e 57 60
e 57 67
e 57 77
e 57 87
e 57 97
e 57 56
e 57 55
e 57 54
e 57 53
e 57 52
e 57 51
e 57 48
e 57 47
e 57 46
e 57 39
e 57 37
e 57 35
e 57 30
e 57 27
e 57 24
e 57 17
e 57 13
e 57 7
e 57 2
e 58 69
e 58 80
e 58 67
e 58 76
e 58 85
e 58 94
e 58 59
e 58 60
e 58 68
e 58 78
e 58 88
e 58 98
e 58 57
e 58 56
e 58 55
e 58 54
e 58 53
e 58 52
e 58 51
e 58 49
e 58 48
e 58 47
e 58 40
e 58 38
e 58 36
e 58 28
e 58 25
e 58 18
e 58 14
e 58 8
e 58 3
e 59 70
e 59 68
e 59 77
e 59 86
e 59 95
e 59 60
e 59 69
e 59 79
e 59 89
e 59 99
e 59 58
e 59 57
e 59 56
e 59 55
e 59 54
e 59 53
e 59 52
e 59 51
e 59 50
e 59 49
e 59 48
e 59 39
e 59 37
e 59 29
e 59 26
e 59 19
e 59 15
e 59 9
e 59 4
e 60 69
e 60 78
e 60 87
e 60 96
e 60 70
e 60 80
e 60 90
e 60 100
e 60 59
e 60 58
e 60 57
e 60 56
e 60 55
e 60 54
e 60 53
e 60 52
e 60 51
e 60 50
e 60 49
e 60 40
e 60 38
e 60 30
e 60 27
e 60 20
e 60 16
e 60 10
e 60 5
e 61 72
e 61 83
e 61 94
e 61 62
e 61 63
e 61 64
e 61 65
e 61 66
e 61 67
e 61 68
e 61 69
e 61 70
e 61 71
e 61 81
e 61 91
e 61 52
e 61 51
e 61 43
e 61 41
e 61 34
e 61 31
e 61 25
e 61 21
e 61 16
e 61 11
e 61 7
e 61 1
e 62 73
e 62 84
e 62 95
e 62 71
e 62 63
e 62 64
e 62 65
e 62 66
e 62 67
e 62 68
e 62 69
e 62 70
e 62 72
e 62 82
e 62 92
e 62 61
e 62 53
e 62 52
e 62 51
e 62 44
e 62 42
e 62 35
e 62 32
e 62 26
e 62 22
e 62 17
e 62 12
e 62 8
e 62 2
e 63 74
e 63 85
e 63 96
e 63 72
e 63 81
e 63 64
e 63 65
e 63 66
e 63 67
e 63 68
e 63 69
e 63 70
e 63 73
e 63 83
e 63 93
e 63 62
e 63 61
e 63 54
e 63 53
e 63 52
e 63 45
e 63 43
e 63 41
e 63 36
e 63 33
e 63 27
e 63 23
e 63 18
e 63 13
e 63 9
e 63 3
e 64 75
e 64 86
e 64 97
e 64 73
e 64 82
e 64 91
e 64 65
e 64 66
e 64 67
e 64 68
e 64 69
e 64 70
e 64 74
e 64 84
e 64 94
e 64 63
e 64 62
e 64 61
e 64 55
e 64 54
e 64 53
e 64 46
e 64 44
e 64 42
e 64 37
e 64 34
e 64 31
e 64 28
e 64 24
e 64 19
e 64 14
e 64 10
e 64 4
e 65 76
e 65 87
e 65 98
e 65 74
e 65 83
e 65 92
e 65 66
e 65 67
e 65 68
e 65 69
e 65 70
e 65 75
e 65 85
e 65 95
e 65 64
e 65 63
e 65 62
e 65 61
e 65 56
e 65 55
e 65 54
e 65 47
e 65 45
e 65 43
e 65 38
e 65 35
e 65 32
e 65 29
e 65 25
e 65 21
e 65 20
e 65 15
e 65 5
e 66 77
e 66 88
e 66 99
e 66 75
e 66 84
e 66 93
e 66 67
e 66 68
e 66 69
e 66 70
e 66 76
e 66 86
e 66 96
e 66 65
e 66 64
e 66 63
e 66 62
e 66 61
e 66 57
e 66 56
e 66 55
e 66 48
e 66 46
e 66 44
e 66 39
e 66 36
e 66 33
e 66 30
e 66 26
e 66 22
e 66 16
e 66 11
e 66 6
e 67 78
e 67 89
e 67 100
e 67 76
e 67 85
e 67 94
e 67 68
e 67 69
e 67 70
e 67 77
e 67 87
e 67 97
e 67 66
e 67 65
e 67 64
e 67 63
e 67 62
e 67 61
e 67 58
e 67 57
e 67 56
e 67 49
e 67 47
e 67 45
e 67 40
e 67 37
e 67 34
e 67 27
e 67 23
e 67 17
e 67 12
e 67 7
e 67 1
e 68 79
e 68 90
e 68 77
e 68 86
e 68 95
e 68 69
e 68 70
e 68 78
e 68 88
e 68 98
e 68 67
e 68 66
e 68 65
e 68 64
e 68 63
e 68 62
e 68 61
e 68 59
e 68 58
e 68 57
e 68 50
e 68 48
e 68 46
e 68 38
e 68 35
e 68 28
e 68 24
e 68 18
e 68 13
e 68 8
e 68 2
e 69 80
e 69 78
e 69 87
e 69 96
e 69 70
e 69 79
e 69 89
e 69 99
e 69 68
e 69 67
e 69 66
e 69 65
e 69 64
e 69 63
e 69 62
e 69 61
e 69 60
e 69 59
e 69 58
e 69 49
e 69 47
e 69 39
e 69 36
e 69 29
e 69 25
e 69 19
e 69 14
e 69 9
e 69 3
e 70 79
e 70 88
e 70 97
e 70 80
e 70 90
e 70 100
e 70 69
e 70 68
e 70 67
e 70 66
e 70 65
e 70 64
e 70 63
e 70 62
e 70 61
e 70 60
e 70 59
e 70 50
e 70 48
e 70 40
e 70 37
e 70 30
e 70 26
e 70 20
e 70 15
e 70 10
e 70 4
e 71 82
e 71 93
e 71 72
e 71 73
e 71 74
e 71 75
e 71 76
e 71 77
e 71 78
e 71 79
e 71 80
e 71 81
e 71 91
e 71 62
e 71 61
e 71 53
e 71 51
e 71 44
e 71 41
e 71 35
e 71 31
e 71 26
e 71 21
e 71 17
e 71 11
e 71 8
e 71 1
e 72 83
e 72 94
e 72 81
e 72 73
e 72 74
e 72 75
e 72 76
e 72 77
e 72 78
e 72 79
e 72 80
e 72 82
e 72 92
e 72 71
e 72 63
e 72 62
e 72 61
e 72 54
e 72 52
e 72 45
e 72 42
e 72 36
e 72 32
e 72 27
e 72 22
e 72 18
e 72 12
e 72 9
e 72 2
e 73 84
e 73 95
e 73 82
e 73 91
e 73 74
e 73 75
e 73 76
e 73 77
e 73 78
e 73 79
e 73 80
e 73 83
e 73 93
e 73 72
e 73 71
e 73 64
e 73 63
e 73 62
e 73 55
e 73 53
e 73 51
e 73 46
e 73 43
e 73 37
e 73 33
e 73 28
e 73 23
e 73 19
e 73 13
e 73 10
e 73 3
e 74 85
e 74 96
e 74 83
e 74 92
e 74 75
e 74 76
e 74 77
e 74 78
e 74 79
e 74 80
e 74 84
e 74 94
e 74 73
e 74 72
e 74 71
e 74 65
e 74 64
e 74 63
e 74 56
e 74 54
e 74 52
e 74 47
e 74 44
e 74 41
e 74 38
e 74 34
e 74 29
e 74 24
e 74 20
e 74 14
e 74 4
e 75 86
e 75 97
e 75 84
e 75 93
e 75 76
e 75 77
e 75 78
e 75 79
e 75 80
e 75 85
e 75 95
e 75 74
e 75 73
e 75 72
e 75 71
e 75 66
e 75 65
e 75 64
e 75 57
e 75 55
e 75 53
e 75 48
e 75 45
e 75 42
e 75 39
e 75 35
e 75 31
e 75 30
e 75 25
e 75 15
e 75 5
e 76 87
e 76 98
e 76 85
e 76 94
e 76 77
e 76 78
e 76 79
e 76 80
e 76 86
e 76 96
e 76 75
e 76 74
e 76 73
e 76 72
e 76 71
e 76 67
e 76 66
e 76 65
e 76 58
e 76 56
e 76 54
e 76 49
e 76 46
e 76 43
e 76 40
e 76 36
e 76 32
e 76 26
e 76 21
e 76 16
e 76 6
e 77 88
e 77 99
e 77 86
e 77 95
e 77 78
e 77 79
e 77 80
e 77 87
e 77 97
e 77 76
e 77 75
e 77 74
e 77 73
e 77 72
e 77 71
e 77 68
e 77 67
e 77 66
e 77 59
e 77 57
e 77 55
e 77 50
e 77 47
e 77 44
e 77 37
e 77 33
e 77 27
e 77 22
e 77 17
e 77 11
e 77 7
e 78 89
e 78 100
e 78 87
e 78 96
e 78 79
e 78 80
e 78 88
e 78 98
e 78 77
e 78 76
e 78 75
e 78 74
e 78 73
e 78 72
e 78 71
e 78 69
e 78 68
e 78 67
e 78 60
e 78 58
e 78 56
e 78 48
e 78 45
e 78 38
e 78 34
e 78 28
e 78 23
e 78 18
e 78 12
e 78 8
e 78 1
e 79 90
e 79 88
e 79 97
e 79 80
e 79 89
e 79 99
e 79 78
e 79 77
e 79 76
e 79 75
e 79 74
e 79 73
e 79 72
e 79 71
e 79 70
e 79 69
e 79 68
e 79 59
e 79 57
e 79 49
e 79 46
e 79 39
e 79 35
e 79 29
e 79 24
e 79 19
e 79 13
e 79 9
e 79 2
e 80 89
e 80 98
e 80 90
e 80 100
e 80 79
e 80 78
e 80 77
e 80 76
e 80 75
e 80 74
e 80 73
e 80 72
e 80 71
e 80 70
e 80 69
e 80 60
e 80 58
e 80 50
e 80 47
e 80 40
e 80 36
e 80 30
e 80 25
e 80 20
e 80 14
e 80 10
e 80 3
e 81 92
e 81 82
e 81 83
e 81 84
e 81 85
e 81 86
e 81 87
e 81 88
e 81 89
e 81 90
e 81 91
e 81 72
e 81 71
e 81 63
e 81 61
e 81 54
e 81 51
e 81 45
e 81 41
e 81 36
e 81 31
e 81 27
e 81 21
e 81 18
e 81 11
e 81 9
e 81 1
e 82 93
e 82 91
e 82 83
e 82 84
e 82 85
e 82 86
e 82 87
e 82 88
e 82 89
e 82 90
e 82 92
e 82 81
e 82 73
e 82 72
e 82 71
e 82 64
e 82 62
e 82 55
e 82 52
e 82 46
e 82 42
e 82 37
e 82 32
e 82 28
e 82 22
e 82 19
e 82 12
e 82 10
e 82 2
e 83 94
e 83 92
e 83 84
e 83 85
e 83 86
e 83 87
e 83 88
e 83 89
e 83 90
e 83 93
e 83 82
e 83 81
e 83 74
e 83 73
e 83 72
e 83 65
e 83 63
e 83 61
e 83 56
e 83 53
e 83 47
e 83 43
e 83 38
e 83 33
e 83 29
e 83 23
e 83 20
e 83 13
e 83 3
e 84 95
e 84 93
e 84 85
e 84 86
e 84 87
e 84 88
e 84 89
e 84 90
e 84 94
e 84 83
e 84 82
e 84 81
e 84 75
e 84 74
e 84 73
e 84 66
e 84 64
e 84 62
e 84 57
e 84 54
e 84 51
e 84 48
e 84 44
e 84 39
e 84 34
e 84 30
e 84 24
e 84 14
e 84 4
e 85 96
e 85 94
e 85 86
e 85 87
e 85 88
e 85 89
e 85 90
e 85 95
e 85 84
e 85 83
e 85 82
e 85 81
e 85 76
e 85 75
e 85 74
e 85 67
e 85 65
e 85 63
e 85 58
e 85 55
e 85 52
e 85 49
e 85 45
e 85 41
e 85 40
e 85 35
e 85 25
e 85 15
e 85 5
e 86 97
e 86 95
e 86 87
e 86 88
e 86 89
e 86 90
e 86 96
e 86 85
e 86 84
e 86 83
e 86 82
e 86 81
e 86 77
e 86 76
e 86 75
e 86 68
e 86 66
e 86 64
e 86 59
e 86 56
e 86 53
e 86 50
e 86 46
e 86 42
e 86 36
e 86 31
e 86 26
e 86 16
e 86 6
e 87 98
e 87 96
e 87 88
e 87 89
e 87 90
e 87 97
e 87 86
e 87 85
e 87 84
e 87 83
e 87 82
e 87 81
e 87 78
e 87 77
e 87 76
e 87 69
e 87 67
e 87 65
e 87 60
e 87 57
e 87 54
e 87 47
e 87 43
e 87 37
e 87 32
e 87 27
e 87 21
e 87 17
e 87 7
e 88 99
e 88 97
e 88 89
e 88 90
e 88 98
e 88 87
e 88 86
e 88 85
e 88 84
e 88 83
e 88 82
e 88 81
e 88 79
e 88 78
e 88 77
e 88 70
e 88 68
e 88 66
e 88 58
e 88 55
e 88 48
e 88 44
e 88 38
e 88 33
e 88 28
e 88 22
e 88 18
e 88 11
e 88 8
e 89 100
e 89 98
e 89 90
e 89 99
e 89 88
e 89 87
e 89 86
e 89 85
e 89 84
e 89 83
e 89 82
e 89 81
e 89 80
e 89 79
e 89 78
e 89 69
e 89 67
e 89 59
e 89 56
e 89 49
e 89 45
e 89 39
e 89 34
e 89 29
e 89 23
e 89 19
e 89 12
e 89 9
e 89 1
e 90 99
e 90 100
e 90 89
e 90 88
e 90 87
e 90 86
e 90 85
e 90 84
e 90 83
e 90 82
e 90 81
e 90 80
e 90 79
e 90 70
e 90 68
e 90 60
e 90 57
e 90 50
e 90 46
e 90 40
e 90 35
e 90 30
e 90 24
e 90 20
e 90 13
e 90 10
e 90 2
e 91 92
e 91 93
e 91 94
e 91 95
e 91 96
e 91 97
e 91 98
e 91 99
e 91 100
e 91 82
e 91 81
e 91 73
e 91 71
e 91 64
e 91 61
e 91 55
e 91 51
e 91 46
e 91 41
e 91 37
e 91 31
e 91 28
e 91 21
e 91 19
e 91 11
e 91 10
e 91 1
e 92 93
e 92 94
e 92 95
e 92 96
e 92 97
e 92 98
e 92 99
e 92 100
e 92 91
e 92 83
e 92 82
e 92 81
e 92 74
e 92 72
e 92 65
e 92 62
e 92 56
e 92 52
e 92 47
e 92 42
e 92 38
e 92 32
e 92 29
e 92 22
e 92 20
e 92 12
e 92 2
e 93 94
e 93 95
e 93 96
e 93 97
e 93 98
e 93 99
e 93 100
e 93 92
e 93 91
e 93 84
e 93 83
e 93 82
e 93 75
e 93 73
e 93 71
e 93 66
e 93 63
e 93 57
e 93 53
e 93 48
e 93 43
e 93 39
e 93 33
e 93 30
e 93 23
e 93 13
e 93 3
e 94 95
e 94 96
e 94 97
e 94 98
e 94 99
e 94 100
e 94 93
e 94 92
e 94 91
e 94 85
e 94 84
e 94 83
e 94 76
e 94 74
e 94 72
e 94 67
e 94 64
e 94 61
e 94 58
e 94 54
e 94 49
e 94 44
e 94 40
e 94 34
e 94 24
e 94 14
e 94 4
e 95 96
e 95 97
e 95 98
e 95 99
e 95 100
e 95 94
e 95 93
e 95 92
e 95 91
e 95 86
e 95 85
e 95 84
e 95 77
e 95 75
e 95 73
e 95 68
e 95 65
e 95 62
e 95 59
e 95 55
e 95 51
e 95 50
e 95 45
e 95 35
e 95 25
e 95 15
e 95 5
e 96 97
e 96 98
e 96 99
e 96 100
e 96 95
e 96 94
e 96 93
e 96 92
e 96 91
e 96 87
e 96 86
e 96 85
e 96 78
e 96 76
e 96 74
e 96 69
e 96 66
e 96 63
e 96 60
e 96 56
e 96 52
e 96 46
e 96 41
e 96 36
e 96 26
e 96 16
e 96 6
e 97 98
e 97 99
e 97 100
e 97 96
e 97 95
e 97 94
e 97 93
e 97 92
e 97 91
e 97 88
e 97 87
e 97 86
e 97 79
e 97 77
e 97 75
e 97 70
e 97 67
e 97 64
e 97 57
e 97 53
e 97 47
e 97 42
e 97 37
e 97 31
e 97 27
e 97 17
e 97 7
e 98 99
e 98 100
e 98 97
e 98 96
e 98 95
e 98 94
e 98 93
e 98 92
e 98 91
e 98 89
e 98 88
e 98 87
e 98 80
e 98 78
e 98 76
e 98 68
e 98 65
e 98 58
e 98 54
e 98 48
e 98 43
e 98 38
e 98 32
e 98 28
e 98 21
e 98 18
e 98 8
e 99 100
e 99 98
e 99 97
e 99 96
e 99 95
e 99 94
e 99 93
e 99 92
e 99 91
e 99 90
e 99 89
e 99 88
e 99 79
e 99 77
e 99 69
e 99 66
e 99 59
e 99 55
e 99 49
e 99 44
e 99 39
e 99 33
e 99 29
e 99 22
e 99 19
e 99 11
e 99 9
e 100 99
e 100 98
e 100 97
e 100 96
e 100 95
e 100 94
e 100 93
e 100 92
e 100 91
e 100 90
e 100 89
e 100 80
e 100 78
e 100 70
e 100 67
e 100 60
e 100 56
e 100 50
e 100 45
e 100 40
e 100 34
e 100 30
e 100 23
e 100 20
e 100 12
e 100 10
e 100 1
